p cnf 321 1087
c p weight -127 1 0
c p weight 127 -1 0
c p weight 131 6.12323399573676603586882014729198302312846062338790031898128063403419218957424163818359375E-17 0
c p weight -131 1 0
c p weight 132 1 0
c p weight -132 1 0
c p weight -129 1 0
c p weight 129 -1 0
c p weight -133 1 0
c p weight 133 -1 0
c p weight -135 1 0
c p weight 135 -1 0
c p weight -138 1 0
c p weight 138 -1 0
c p weight -141 1 0
c p weight 141 -1 0
c p weight -144 1 0
c p weight 144 -1 0
c p weight -147 1 0
c p weight 147 -1 0
c p weight -150 1 0
c p weight 150 -1 0
c p weight -153 1 0
c p weight 153 -1 0
c p weight -156 1 0
c p weight 156 -1 0
c p weight -159 1 0
c p weight 159 -1 0
c p weight -162 1 0
c p weight 162 -1 0
c p weight -165 1 0
c p weight 165 -1 0
c p weight -168 1 0
c p weight 168 -1 0
c p weight -171 1 0
c p weight 171 -1 0
c p weight -174 1 0
c p weight 174 -1 0
c p weight -177 1 0
c p weight 177 -1 0
c p weight -180 1 0
c p weight 180 -1 0
c p weight -183 1 0
c p weight 183 -1 0
c p weight -186 1 0
c p weight 186 -1 0
c p weight -189 1 0
c p weight 189 -1 0
c p weight -192 1 0
c p weight 192 -1 0
c p weight -195 1 0
c p weight 195 -1 0
c p weight -198 1 0
c p weight 198 -1 0
c p weight -201 1 0
c p weight 201 -1 0
c p weight -204 1 0
c p weight 204 -1 0
c p weight -207 1 0
c p weight 207 -1 0
c p weight -210 1 0
c p weight 210 -1 0
c p weight -213 1 0
c p weight 213 -1 0
c p weight -216 1 0
c p weight 216 -1 0
c p weight -219 1 0
c p weight 219 -1 0
c p weight -222 1 0
c p weight 222 -1 0
c p weight -225 1 0
c p weight 225 -1 0
c p weight -228 1 0
c p weight 228 -1 0
c p weight -231 1 0
c p weight 231 -1 0
c p weight -234 1 0
c p weight 234 -1 0
c p weight -237 1 0
c p weight 237 -1 0
c p weight -240 1 0
c p weight 240 -1 0
c p weight -243 1 0
c p weight 243 -1 0
c p weight -246 1 0
c p weight 246 -1 0
c p weight -249 1 0
c p weight 249 -1 0
c p weight -252 1 0
c p weight 252 -1 0
c p weight -255 1 0
c p weight 255 -1 0
c p weight -258 1 0
c p weight 258 -1 0
c p weight -261 1 0
c p weight 261 -1 0
c p weight -264 1 0
c p weight 264 -1 0
c p weight -267 1 0
c p weight 267 -1 0
c p weight -270 1 0
c p weight 270 -1 0
c p weight -273 1 0
c p weight 273 -1 0
c p weight -276 1 0
c p weight 276 -1 0
c p weight -279 1 0
c p weight 279 -1 0
c p weight -282 1 0
c p weight 282 -1 0
c p weight -285 1 0
c p weight 285 -1 0
c p weight -288 1 0
c p weight 288 -1 0
c p weight -291 1 0
c p weight 291 -1 0
c p weight -294 1 0
c p weight 294 -1 0
c p weight -297 1 0
c p weight 297 -1 0
c p weight -300 1 0
c p weight 300 -1 0
c p weight -303 1 0
c p weight 303 -1 0
c p weight -306 1 0
c p weight 306 -1 0
c p weight -309 1 0
c p weight 309 -1 0
c p weight -312 1 0
c p weight 312 -1 0
c p weight -315 1 0
c p weight 315 -1 0
c p weight -318 1 0
c p weight 318 -1 0
c p weight 321 0.5 0
c p weight -321 1 0
321 0
-125 0
-123 0
-121 0
-119 0
-117 0
-115 0
-113 0
-111 0
-109 0
-107 0
-105 0
-103 0
-101 0
-99 0
-97 0
-95 0
-93 0
-91 0
-89 0
-87 0
-85 0
-83 0
-81 0
-79 0
-77 0
-75 0
-73 0
-71 0
-69 0
-67 0
-65 0
-63 0
-61 0
-59 0
-57 0
-55 0
-53 0
-51 0
-49 0
-47 0
-45 0
-43 0
-41 0
-39 0
-37 0
-35 0
-33 0
-31 0
-29 0
-27 0
-25 0
-23 0
-21 0
-19 0
-17 0
-15 0
-13 0
-11 0
-9 0
-7 0
-5 0
-3 0
-1 0
-127 125 0
-127 126 0
127 -125 -126 0
128 125 -126 0
128 -125 126 0
-128 125 126 0
-128 -125 -126 0
-129 130 0
-129 128 0
-129 -125 0
129 -130 125 -128 0
130 -125 128 0
-130 125 128 0
-131 128 0
130 -131 -125 0
-130 -131 125 0
130 131 125 -128 0
-130 131 -125 -128 0
-132 128 0
130 -132 125 0
-130 -132 -125 0
130 132 -125 -128 0
-130 132 125 -128 0
-133 130 0
-133 128 0
133 -130 -128 0
134 130 -128 0
134 -130 128 0
-134 130 128 0
-134 -130 -128 0
-135 130 0
-135 124 0
-135 123 -134 0
-135 -123 134 0
135 -130 123 134 -124 0
135 -130 -123 -134 -124 0
137 130 -123 0
137 -130 123 0
-137 130 123 0
-137 -130 -123 0
136 134 -124 0
136 -134 124 0
-136 134 124 0
-136 -134 -124 0
-138 137 0
-138 122 0
-138 121 -124 0
-138 -121 124 0
138 -137 121 124 -122 0
138 -137 -121 -124 -122 0
140 137 -121 0
140 -137 121 0
-140 137 121 0
-140 -137 -121 0
139 124 -122 0
139 -124 122 0
-139 124 122 0
-139 -124 -122 0
-141 140 0
-141 120 0
-141 119 -122 0
-141 -119 122 0
141 -140 119 122 -120 0
141 -140 -119 -122 -120 0
143 140 -119 0
143 -140 119 0
-143 140 119 0
-143 -140 -119 0
142 122 -120 0
142 -122 120 0
-142 122 120 0
-142 -122 -120 0
-144 143 0
-144 118 0
-144 117 -120 0
-144 -117 120 0
144 -143 117 120 -118 0
144 -143 -117 -120 -118 0
146 143 -117 0
146 -143 117 0
-146 143 117 0
-146 -143 -117 0
145 120 -118 0
145 -120 118 0
-145 120 118 0
-145 -120 -118 0
-147 146 0
-147 116 0
-147 115 -118 0
-147 -115 118 0
147 -146 115 118 -116 0
147 -146 -115 -118 -116 0
149 146 -115 0
149 -146 115 0
-149 146 115 0
-149 -146 -115 0
148 118 -116 0
148 -118 116 0
-148 118 116 0
-148 -118 -116 0
-150 149 0
-150 114 0
-150 113 -116 0
-150 -113 116 0
150 -149 113 116 -114 0
150 -149 -113 -116 -114 0
152 149 -113 0
152 -149 113 0
-152 149 113 0
-152 -149 -113 0
151 116 -114 0
151 -116 114 0
-151 116 114 0
-151 -116 -114 0
-153 152 0
-153 112 0
-153 111 -114 0
-153 -111 114 0
153 -152 111 114 -112 0
153 -152 -111 -114 -112 0
155 152 -111 0
155 -152 111 0
-155 152 111 0
-155 -152 -111 0
154 114 -112 0
154 -114 112 0
-154 114 112 0
-154 -114 -112 0
-156 155 0
-156 110 0
-156 109 -112 0
-156 -109 112 0
156 -155 109 112 -110 0
156 -155 -109 -112 -110 0
158 155 -109 0
158 -155 109 0
-158 155 109 0
-158 -155 -109 0
157 112 -110 0
157 -112 110 0
-157 112 110 0
-157 -112 -110 0
-159 158 0
-159 108 0
-159 107 -110 0
-159 -107 110 0
159 -158 107 110 -108 0
159 -158 -107 -110 -108 0
161 158 -107 0
161 -158 107 0
-161 158 107 0
-161 -158 -107 0
160 110 -108 0
160 -110 108 0
-160 110 108 0
-160 -110 -108 0
-162 161 0
-162 106 0
-162 105 -108 0
-162 -105 108 0
162 -161 105 108 -106 0
162 -161 -105 -108 -106 0
164 161 -105 0
164 -161 105 0
-164 161 105 0
-164 -161 -105 0
163 108 -106 0
163 -108 106 0
-163 108 106 0
-163 -108 -106 0
-165 164 0
-165 104 0
-165 103 -106 0
-165 -103 106 0
165 -164 103 106 -104 0
165 -164 -103 -106 -104 0
167 164 -103 0
167 -164 103 0
-167 164 103 0
-167 -164 -103 0
166 106 -104 0
166 -106 104 0
-166 106 104 0
-166 -106 -104 0
-168 167 0
-168 102 0
-168 101 -104 0
-168 -101 104 0
168 -167 101 104 -102 0
168 -167 -101 -104 -102 0
170 167 -101 0
170 -167 101 0
-170 167 101 0
-170 -167 -101 0
169 104 -102 0
169 -104 102 0
-169 104 102 0
-169 -104 -102 0
-171 170 0
-171 100 0
-171 99 -102 0
-171 -99 102 0
171 -170 99 102 -100 0
171 -170 -99 -102 -100 0
173 170 -99 0
173 -170 99 0
-173 170 99 0
-173 -170 -99 0
172 102 -100 0
172 -102 100 0
-172 102 100 0
-172 -102 -100 0
-174 173 0
-174 98 0
-174 97 -100 0
-174 -97 100 0
174 -173 97 100 -98 0
174 -173 -97 -100 -98 0
176 173 -97 0
176 -173 97 0
-176 173 97 0
-176 -173 -97 0
175 100 -98 0
175 -100 98 0
-175 100 98 0
-175 -100 -98 0
-177 176 0
-177 96 0
-177 95 -98 0
-177 -95 98 0
177 -176 95 98 -96 0
177 -176 -95 -98 -96 0
179 176 -95 0
179 -176 95 0
-179 176 95 0
-179 -176 -95 0
178 98 -96 0
178 -98 96 0
-178 98 96 0
-178 -98 -96 0
-180 179 0
-180 94 0
-180 93 -96 0
-180 -93 96 0
180 -179 93 96 -94 0
180 -179 -93 -96 -94 0
182 179 -93 0
182 -179 93 0
-182 179 93 0
-182 -179 -93 0
181 96 -94 0
181 -96 94 0
-181 96 94 0
-181 -96 -94 0
-183 182 0
-183 92 0
-183 91 -94 0
-183 -91 94 0
183 -182 91 94 -92 0
183 -182 -91 -94 -92 0
185 182 -91 0
185 -182 91 0
-185 182 91 0
-185 -182 -91 0
184 94 -92 0
184 -94 92 0
-184 94 92 0
-184 -94 -92 0
-186 185 0
-186 90 0
-186 89 -92 0
-186 -89 92 0
186 -185 89 92 -90 0
186 -185 -89 -92 -90 0
188 185 -89 0
188 -185 89 0
-188 185 89 0
-188 -185 -89 0
187 92 -90 0
187 -92 90 0
-187 92 90 0
-187 -92 -90 0
-189 188 0
-189 88 0
-189 87 -90 0
-189 -87 90 0
189 -188 87 90 -88 0
189 -188 -87 -90 -88 0
191 188 -87 0
191 -188 87 0
-191 188 87 0
-191 -188 -87 0
190 90 -88 0
190 -90 88 0
-190 90 88 0
-190 -90 -88 0
-192 191 0
-192 86 0
-192 85 -88 0
-192 -85 88 0
192 -191 85 88 -86 0
192 -191 -85 -88 -86 0
194 191 -85 0
194 -191 85 0
-194 191 85 0
-194 -191 -85 0
193 88 -86 0
193 -88 86 0
-193 88 86 0
-193 -88 -86 0
-195 194 0
-195 84 0
-195 83 -86 0
-195 -83 86 0
195 -194 83 86 -84 0
195 -194 -83 -86 -84 0
197 194 -83 0
197 -194 83 0
-197 194 83 0
-197 -194 -83 0
196 86 -84 0
196 -86 84 0
-196 86 84 0
-196 -86 -84 0
-198 197 0
-198 82 0
-198 81 -84 0
-198 -81 84 0
198 -197 81 84 -82 0
198 -197 -81 -84 -82 0
200 197 -81 0
200 -197 81 0
-200 197 81 0
-200 -197 -81 0
199 84 -82 0
199 -84 82 0
-199 84 82 0
-199 -84 -82 0
-201 200 0
-201 80 0
-201 79 -82 0
-201 -79 82 0
201 -200 79 82 -80 0
201 -200 -79 -82 -80 0
203 200 -79 0
203 -200 79 0
-203 200 79 0
-203 -200 -79 0
202 82 -80 0
202 -82 80 0
-202 82 80 0
-202 -82 -80 0
-204 203 0
-204 78 0
-204 77 -80 0
-204 -77 80 0
204 -203 77 80 -78 0
204 -203 -77 -80 -78 0
206 203 -77 0
206 -203 77 0
-206 203 77 0
-206 -203 -77 0
205 80 -78 0
205 -80 78 0
-205 80 78 0
-205 -80 -78 0
-207 206 0
-207 76 0
-207 75 -78 0
-207 -75 78 0
207 -206 75 78 -76 0
207 -206 -75 -78 -76 0
209 206 -75 0
209 -206 75 0
-209 206 75 0
-209 -206 -75 0
208 78 -76 0
208 -78 76 0
-208 78 76 0
-208 -78 -76 0
-210 209 0
-210 74 0
-210 73 -76 0
-210 -73 76 0
210 -209 73 76 -74 0
210 -209 -73 -76 -74 0
212 209 -73 0
212 -209 73 0
-212 209 73 0
-212 -209 -73 0
211 76 -74 0
211 -76 74 0
-211 76 74 0
-211 -76 -74 0
-213 212 0
-213 72 0
-213 71 -74 0
-213 -71 74 0
213 -212 71 74 -72 0
213 -212 -71 -74 -72 0
215 212 -71 0
215 -212 71 0
-215 212 71 0
-215 -212 -71 0
214 74 -72 0
214 -74 72 0
-214 74 72 0
-214 -74 -72 0
-216 215 0
-216 70 0
-216 69 -72 0
-216 -69 72 0
216 -215 69 72 -70 0
216 -215 -69 -72 -70 0
218 215 -69 0
218 -215 69 0
-218 215 69 0
-218 -215 -69 0
217 72 -70 0
217 -72 70 0
-217 72 70 0
-217 -72 -70 0
-219 218 0
-219 68 0
-219 67 -70 0
-219 -67 70 0
219 -218 67 70 -68 0
219 -218 -67 -70 -68 0
221 218 -67 0
221 -218 67 0
-221 218 67 0
-221 -218 -67 0
220 70 -68 0
220 -70 68 0
-220 70 68 0
-220 -70 -68 0
-222 221 0
-222 66 0
-222 65 -68 0
-222 -65 68 0
222 -221 65 68 -66 0
222 -221 -65 -68 -66 0
224 221 -65 0
224 -221 65 0
-224 221 65 0
-224 -221 -65 0
223 68 -66 0
223 -68 66 0
-223 68 66 0
-223 -68 -66 0
-225 224 0
-225 64 0
-225 63 -66 0
-225 -63 66 0
225 -224 63 66 -64 0
225 -224 -63 -66 -64 0
227 224 -63 0
227 -224 63 0
-227 224 63 0
-227 -224 -63 0
226 66 -64 0
226 -66 64 0
-226 66 64 0
-226 -66 -64 0
-228 227 0
-228 62 0
-228 61 -64 0
-228 -61 64 0
228 -227 61 64 -62 0
228 -227 -61 -64 -62 0
230 227 -61 0
230 -227 61 0
-230 227 61 0
-230 -227 -61 0
229 64 -62 0
229 -64 62 0
-229 64 62 0
-229 -64 -62 0
-231 230 0
-231 60 0
-231 59 -62 0
-231 -59 62 0
231 -230 59 62 -60 0
231 -230 -59 -62 -60 0
233 230 -59 0
233 -230 59 0
-233 230 59 0
-233 -230 -59 0
232 62 -60 0
232 -62 60 0
-232 62 60 0
-232 -62 -60 0
-234 233 0
-234 58 0
-234 57 -60 0
-234 -57 60 0
234 -233 57 60 -58 0
234 -233 -57 -60 -58 0
236 233 -57 0
236 -233 57 0
-236 233 57 0
-236 -233 -57 0
235 60 -58 0
235 -60 58 0
-235 60 58 0
-235 -60 -58 0
-237 236 0
-237 56 0
-237 55 -58 0
-237 -55 58 0
237 -236 55 58 -56 0
237 -236 -55 -58 -56 0
239 236 -55 0
239 -236 55 0
-239 236 55 0
-239 -236 -55 0
238 58 -56 0
238 -58 56 0
-238 58 56 0
-238 -58 -56 0
-240 239 0
-240 54 0
-240 53 -56 0
-240 -53 56 0
240 -239 53 56 -54 0
240 -239 -53 -56 -54 0
242 239 -53 0
242 -239 53 0
-242 239 53 0
-242 -239 -53 0
241 56 -54 0
241 -56 54 0
-241 56 54 0
-241 -56 -54 0
-243 242 0
-243 52 0
-243 51 -54 0
-243 -51 54 0
243 -242 51 54 -52 0
243 -242 -51 -54 -52 0
245 242 -51 0
245 -242 51 0
-245 242 51 0
-245 -242 -51 0
244 54 -52 0
244 -54 52 0
-244 54 52 0
-244 -54 -52 0
-246 245 0
-246 50 0
-246 49 -52 0
-246 -49 52 0
246 -245 49 52 -50 0
246 -245 -49 -52 -50 0
248 245 -49 0
248 -245 49 0
-248 245 49 0
-248 -245 -49 0
247 52 -50 0
247 -52 50 0
-247 52 50 0
-247 -52 -50 0
-249 248 0
-249 48 0
-249 47 -50 0
-249 -47 50 0
249 -248 47 50 -48 0
249 -248 -47 -50 -48 0
251 248 -47 0
251 -248 47 0
-251 248 47 0
-251 -248 -47 0
250 50 -48 0
250 -50 48 0
-250 50 48 0
-250 -50 -48 0
-252 251 0
-252 46 0
-252 45 -48 0
-252 -45 48 0
252 -251 45 48 -46 0
252 -251 -45 -48 -46 0
254 251 -45 0
254 -251 45 0
-254 251 45 0
-254 -251 -45 0
253 48 -46 0
253 -48 46 0
-253 48 46 0
-253 -48 -46 0
-255 254 0
-255 44 0
-255 43 -46 0
-255 -43 46 0
255 -254 43 46 -44 0
255 -254 -43 -46 -44 0
257 254 -43 0
257 -254 43 0
-257 254 43 0
-257 -254 -43 0
256 46 -44 0
256 -46 44 0
-256 46 44 0
-256 -46 -44 0
-258 257 0
-258 42 0
-258 41 -44 0
-258 -41 44 0
258 -257 41 44 -42 0
258 -257 -41 -44 -42 0
260 257 -41 0
260 -257 41 0
-260 257 41 0
-260 -257 -41 0
259 44 -42 0
259 -44 42 0
-259 44 42 0
-259 -44 -42 0
-261 260 0
-261 40 0
-261 39 -42 0
-261 -39 42 0
261 -260 39 42 -40 0
261 -260 -39 -42 -40 0
263 260 -39 0
263 -260 39 0
-263 260 39 0
-263 -260 -39 0
262 42 -40 0
262 -42 40 0
-262 42 40 0
-262 -42 -40 0
-264 263 0
-264 38 0
-264 37 -40 0
-264 -37 40 0
264 -263 37 40 -38 0
264 -263 -37 -40 -38 0
266 263 -37 0
266 -263 37 0
-266 263 37 0
-266 -263 -37 0
265 40 -38 0
265 -40 38 0
-265 40 38 0
-265 -40 -38 0
-267 266 0
-267 36 0
-267 35 -38 0
-267 -35 38 0
267 -266 35 38 -36 0
267 -266 -35 -38 -36 0
269 266 -35 0
269 -266 35 0
-269 266 35 0
-269 -266 -35 0
268 38 -36 0
268 -38 36 0
-268 38 36 0
-268 -38 -36 0
-270 269 0
-270 34 0
-270 33 -36 0
-270 -33 36 0
270 -269 33 36 -34 0
270 -269 -33 -36 -34 0
272 269 -33 0
272 -269 33 0
-272 269 33 0
-272 -269 -33 0
271 36 -34 0
271 -36 34 0
-271 36 34 0
-271 -36 -34 0
-273 272 0
-273 32 0
-273 31 -34 0
-273 -31 34 0
273 -272 31 34 -32 0
273 -272 -31 -34 -32 0
275 272 -31 0
275 -272 31 0
-275 272 31 0
-275 -272 -31 0
274 34 -32 0
274 -34 32 0
-274 34 32 0
-274 -34 -32 0
-276 275 0
-276 30 0
-276 29 -32 0
-276 -29 32 0
276 -275 29 32 -30 0
276 -275 -29 -32 -30 0
278 275 -29 0
278 -275 29 0
-278 275 29 0
-278 -275 -29 0
277 32 -30 0
277 -32 30 0
-277 32 30 0
-277 -32 -30 0
-279 278 0
-279 28 0
-279 27 -30 0
-279 -27 30 0
279 -278 27 30 -28 0
279 -278 -27 -30 -28 0
281 278 -27 0
281 -278 27 0
-281 278 27 0
-281 -278 -27 0
280 30 -28 0
280 -30 28 0
-280 30 28 0
-280 -30 -28 0
-282 281 0
-282 26 0
-282 25 -28 0
-282 -25 28 0
282 -281 25 28 -26 0
282 -281 -25 -28 -26 0
284 281 -25 0
284 -281 25 0
-284 281 25 0
-284 -281 -25 0
283 28 -26 0
283 -28 26 0
-283 28 26 0
-283 -28 -26 0
-285 284 0
-285 24 0
-285 23 -26 0
-285 -23 26 0
285 -284 23 26 -24 0
285 -284 -23 -26 -24 0
287 284 -23 0
287 -284 23 0
-287 284 23 0
-287 -284 -23 0
286 26 -24 0
286 -26 24 0
-286 26 24 0
-286 -26 -24 0
-288 287 0
-288 22 0
-288 21 -24 0
-288 -21 24 0
288 -287 21 24 -22 0
288 -287 -21 -24 -22 0
290 287 -21 0
290 -287 21 0
-290 287 21 0
-290 -287 -21 0
289 24 -22 0
289 -24 22 0
-289 24 22 0
-289 -24 -22 0
-291 290 0
-291 20 0
-291 19 -22 0
-291 -19 22 0
291 -290 19 22 -20 0
291 -290 -19 -22 -20 0
293 290 -19 0
293 -290 19 0
-293 290 19 0
-293 -290 -19 0
292 22 -20 0
292 -22 20 0
-292 22 20 0
-292 -22 -20 0
-294 293 0
-294 18 0
-294 17 -20 0
-294 -17 20 0
294 -293 17 20 -18 0
294 -293 -17 -20 -18 0
296 293 -17 0
296 -293 17 0
-296 293 17 0
-296 -293 -17 0
295 20 -18 0
295 -20 18 0
-295 20 18 0
-295 -20 -18 0
-297 296 0
-297 16 0
-297 15 -18 0
-297 -15 18 0
297 -296 15 18 -16 0
297 -296 -15 -18 -16 0
299 296 -15 0
299 -296 15 0
-299 296 15 0
-299 -296 -15 0
298 18 -16 0
298 -18 16 0
-298 18 16 0
-298 -18 -16 0
-300 299 0
-300 14 0
-300 13 -16 0
-300 -13 16 0
300 -299 13 16 -14 0
300 -299 -13 -16 -14 0
302 299 -13 0
302 -299 13 0
-302 299 13 0
-302 -299 -13 0
301 16 -14 0
301 -16 14 0
-301 16 14 0
-301 -16 -14 0
-303 302 0
-303 12 0
-303 11 -14 0
-303 -11 14 0
303 -302 11 14 -12 0
303 -302 -11 -14 -12 0
305 302 -11 0
305 -302 11 0
-305 302 11 0
-305 -302 -11 0
304 14 -12 0
304 -14 12 0
-304 14 12 0
-304 -14 -12 0
-306 305 0
-306 10 0
-306 9 -12 0
-306 -9 12 0
306 -305 9 12 -10 0
306 -305 -9 -12 -10 0
308 305 -9 0
308 -305 9 0
-308 305 9 0
-308 -305 -9 0
307 12 -10 0
307 -12 10 0
-307 12 10 0
-307 -12 -10 0
-309 308 0
-309 8 0
-309 7 -10 0
-309 -7 10 0
309 -308 7 10 -8 0
309 -308 -7 -10 -8 0
311 308 -7 0
311 -308 7 0
-311 308 7 0
-311 -308 -7 0
310 10 -8 0
310 -10 8 0
-310 10 8 0
-310 -10 -8 0
-312 311 0
-312 6 0
-312 5 -8 0
-312 -5 8 0
312 -311 5 8 -6 0
312 -311 -5 -8 -6 0
314 311 -5 0
314 -311 5 0
-314 311 5 0
-314 -311 -5 0
313 8 -6 0
313 -8 6 0
-313 8 6 0
-313 -8 -6 0
-315 314 0
-315 4 0
-315 3 -6 0
-315 -3 6 0
315 -314 3 6 -4 0
315 -314 -3 -6 -4 0
317 314 -3 0
317 -314 3 0
-317 314 3 0
-317 -314 -3 0
316 6 -4 0
316 -6 4 0
-316 6 4 0
-316 -6 -4 0
-318 317 0
-318 2 0
-318 1 -4 0
-318 -1 4 0
318 -317 1 4 -2 0
318 -317 -1 -4 -2 0
320 317 -1 0
320 -317 1 0
-320 317 1 0
-320 -317 -1 0
319 4 -2 0
319 -4 2 0
-319 4 2 0
-319 -4 -2 0
-320 0
-317 0
-319 0
-314 0
-316 0
-311 0
-313 0
-308 0
-310 0
-305 0
-307 0
-302 0
-304 0
-299 0
-301 0
-296 0
-298 0
-293 0
-295 0
-290 0
-292 0
-287 0
-289 0
-284 0
-286 0
-281 0
-283 0
-278 0
-280 0
-275 0
-277 0
-272 0
-274 0
-269 0
-271 0
-266 0
-268 0
-263 0
-265 0
-260 0
-262 0
-257 0
-259 0
-254 0
-256 0
-251 0
-253 0
-248 0
-250 0
-245 0
-247 0
-242 0
-244 0
-239 0
-241 0
-236 0
-238 0
-233 0
-235 0
-230 0
-232 0
-227 0
-229 0
-224 0
-226 0
-221 0
-223 0
-218 0
-220 0
-215 0
-217 0
-212 0
-214 0
-209 0
-211 0
-206 0
-208 0
-203 0
-205 0
-200 0
-202 0
-197 0
-199 0
-194 0
-196 0
-191 0
-193 0
-188 0
-190 0
-185 0
-187 0
-182 0
-184 0
-179 0
-181 0
-176 0
-178 0
-173 0
-175 0
-170 0
-172 0
-167 0
-169 0
-164 0
-166 0
-161 0
-163 0
-158 0
-160 0
-155 0
-157 0
-152 0
-154 0
-149 0
-151 0
-146 0
-148 0
-143 0
-145 0
-140 0
-142 0
-137 0
-139 0
-130 0
-136 0
